minizinc_built_ins/int/array_int_element.fzn
% Generated by MiniZinc 2.9.4
% Solver library: 
% Command line invocation: C:\Program Files\MiniZinc\minizinc.exe -c --solver mzn-fzn array_int_element.mzn 

array [1..3] of int: X_INTRODUCED_1_ = [10,20,30];
var 1..3: b:: output_var;
var 10..30: c:: output_var:: is_defined_var;
constraint array_int_element(b,X_INTRODUCED_1_,c):: defines_var(c);
solve  satisfy;
