minizinc_built_ins/int/array_int_element.ozn
output ["b = ",showDzn(b),";\n","c = ",showDzn(c),";\n"];
int: c;
int: b;
